\ SCIP STATISTICS
\   Problem name     : CapacitatedFacilityLocation-20-10
\   Variables        : 210 (210 binary, 0 integer, 0 implicit integer, 0 continuous)
\   Constraints      : 231
Minimize
 Obj: +756.921126323618 x0 +1140.14545315406 x1 +826.533238119236 x2 +898.89999408214 x3 +734.521796455583 x4
      +1155.82814006589 x5 +938.083237635885 x6 +1116.73792452623 x7 +1076.18706459657 x8 +583.597799170526 x9
      +65.3634008954037 x10 +68.5089556051575 x11 +47.8263613155515 x12 +85.3945443468667 x13 +74.774981240435 x14
      +35.1910178373083 x15 +68.2306829829879 x16 +52.5306841977905 x17 +105.510480597577 x18 +63.8530379073596 x19
      +131.037379229717 x20 +59.1941123558919 x21 +53.0657462991857 x22 +182.082636286571 x23 +212.351042425967 x24
      +161.644608515294 x25 +122.071281204037 x26 +109.946665515874 x27 +160.090118120366 x28 +73.7002055009643 x29
      +67.1621294456402 x30 +48.2610441623697 x31 +64.4621217407754 x32 +64.0181347962026 x33 +84.4992687659909 x34
      +89.1919588523579 x35 +61.7434607719288 x36 +70.286391212223 x37 +14.254165786802 x38 +55.2604462807513 x39
      +38.5027075880308 x40 +184.313271863805 x41 +121.138470313665 x42 +306.140670547065 x43 +95.1922652776922 x44
      +265.490040480457 x45 +250.637748177204 x46 +234.764224397307 x47 +171.280255211683 x48 +203.461860733106 x49
      +37.7635483351429 x50 +27.3048177565987 x51 +36.3722161290411 x52 +40.9133660254729 x53 +49.5308759671529 x54
      +54.3300731987803 x55 +37.5991258822478 x56 +42.2176097805855 x57 +2.76046979759661 x58 +32.226480650984 x59
      +35.7706121216592 x60 +19.9375974343373 x61 +31.1774774365213 x62 +27.5385981149221 x63 +46.5104945105647 x64
      +42.5544264130667 x65 +26.5177813379361 x66 +31.770978470367 x67 +9.90610379443818 x68 +23.5243511380473 x69
      +195.119384578491 x70 +45.6300542399326 x71 +105.143435979401 x72 +96.8856395706248 x73 +267.336168899405 x74
      +104.613712070523 x75 +36.2718960896051 x76 +34.9786699857305 x77 +190.074897165282 x78 +18.8087169390048 x79
      +89.8654458916854 x80 +65.2146820287815 x81 +72.5884402456125 x82 +151.576404215234 x83 +146.704297829955 x84
      +160.793749991354 x85 +117.354875344073 x86 +119.59112132297 x87 +72.5123448405937 x88 +84.3661560244553 x89
      +84.41729654607 x90 +44.9750972820072 x91 +72.450516054423 x92 +63.5371044752996 x93 +110.491562306748 x94
      +99.2135586716147 x95 +60.7395504883229 x96 +73.3155117945183 x97 +24.6355645941304 x98 +53.535131039359 x99
      +11.3653482744556 x100 +30.9720422359306 x101 +10.8080644252109 x102 +54.5789584414928 x103 +25.0907367934265 x104
      +38.480438432113 x105 +41.6493895274913 x106 +35.3844781810881 x107 +43.2156767099072 x108 +32.6603166149758 x109
      +89.1832764742385 x110 +65.6352996853321 x111 +35.9198687925467 x112 +109.201485466417 x113 +124.586211574233 x114
      +45.9149981002654 x115 +73.3042747355646 x116 +46.7887891620697 x117 +138.258200793278 x118 +58.5923395662161 x119
      +18.6978517732328 x120 +48.6591868864673 x121 +36.6723897086102 x122 +80.5608451451539 x123 +32.0889574375994 x124
      +74.7987796546269 x125 +67.0173978215578 x126 +64.6089913070592 x127 +38.4006916096321 x128 +54.6000986370494 x129
      +62.0347179466638 x130 +77.5525783621301 x131 +17.7073447158673 x132 +163.421365126056 x133 +118.377318721113 x134
      +123.344594953261 x135 +118.343595114543 x136 +100.822811193878 x137 +131.402528048361 x138 +85.0450818335245 x139
      +38.14505098181 x140 +45.7440387271745 x141 +42.7880147650304 x142 +86.8089738542836 x143 +62.8440372116266 x144
      +89.4978284845654 x145 +70.7722950921714 x146 +71.2264897908354 x147 +32.5771012974497 x148 +54.8801496223477 x149
      +60.0824821406199 x150 +8.81927009126386 x151 +38.7122152931606 x152 +32.5496572294022 x153 +83.5474234929138 x154
      +52.4957009058011 x155 +22.1434700263463 x156 +30.8360068433621 x157 +41.154238773098 x158 +14.4256896988467 x159
      +47.9363960869079 x160 +65.5991306398785 x161 +27.9706641004754 x162 +140.00633371334 x163 +96.9786667309041 x164
      +115.387861574499 x165 +103.795351451492 x166 +92.8326385004593 x167 +98.7089256442895 x168 +74.9189982422581 x169
      +34.7962875513906 x170 +99.6132988234622 x171 +68.2285793867079 x172 +141.903820461517 x173 +6.82165506663176 x174
      +113.244821437832 x175 +120.434583085358 x176 +110.460010009258 x177 +98.7564705273834 x178 +104.369308632024 x179
      +55.2065043202185 x180 +34.3600265853486 x181 +29.3072881232462 x182 +45.9975129488046 x183 +71.8710830009897 x184
      +8.97552385050692 x185 +30.5266479835694 x186 +16.3804157580492 x187 +73.0392298301104 x188 +28.5008723212745 x189
      +60.2194993779916 x190 +210.796033222057 x191 +142.506305236636 x192 +310.424828366409 x193 +19.3183777571454 x194
      +253.409251012403 x195 +261.579794233345 x196 +241.278669955838 x197 +203.410581570445 x198 +223.439749763585 x199
      +183.957466842071 x200 +32.6322492514472 x201 +115.738237683856 x202 +68.8041447879587 x203 +249.391207422427 x204
      +131.621790251126 x205 +38.0376330648428 x206 +69.5841548755755 x207 +139.508183185913 x208 +30.9087499079024 x209
Subject to
 c0: +1 x10 +1 x11 +1 x12 +1 x13 +1 x14 +1 x15 +1 x16 +1 x17 +1 x18 +1 x19 >= +1
 c1: +1 x20 +1 x21 +1 x22 +1 x23 +1 x24 +1 x25 +1 x26 +1 x27 +1 x28 +1 x29 >= +1
 c2: +1 x30 +1 x31 +1 x32 +1 x33 +1 x34 +1 x35 +1 x36 +1 x37 +1 x38 +1 x39 >= +1
 c3: +1 x40 +1 x41 +1 x42 +1 x43 +1 x44 +1 x45 +1 x46 +1 x47 +1 x48 +1 x49 >= +1
 c4: +1 x50 +1 x51 +1 x52 +1 x53 +1 x54 +1 x55 +1 x56 +1 x57 +1 x58 +1 x59 >= +1
 c5: +1 x60 +1 x61 +1 x62 +1 x63 +1 x64 +1 x65 +1 x66 +1 x67 +1 x68 +1 x69 >= +1
 c6: +1 x70 +1 x71 +1 x72 +1 x73 +1 x74 +1 x75 +1 x76 +1 x77 +1 x78 +1 x79 >= +1
 c7: +1 x80 +1 x81 +1 x82 +1 x83 +1 x84 +1 x85 +1 x86 +1 x87 +1 x88 +1 x89 >= +1
 c8: +1 x90 +1 x91 +1 x92 +1 x93 +1 x94 +1 x95 +1 x96 +1 x97 +1 x98 +1 x99 >= +1
 c9: +1 x100 +1 x101 +1 x102 +1 x103 +1 x104 +1 x105 +1 x106 +1 x107 +1 x108 +1 x109 >= +1
 c10: +1 x110 +1 x111 +1 x112 +1 x113 +1 x114 +1 x115 +1 x116 +1 x117 +1 x118 +1 x119 >= +1
 c11: +1 x120 +1 x121 +1 x122 +1 x123 +1 x124 +1 x125 +1 x126 +1 x127 +1 x128 +1 x129 >= +1
 c12: +1 x130 +1 x131 +1 x132 +1 x133 +1 x134 +1 x135 +1 x136 +1 x137 +1 x138 +1 x139 >= +1
 c13: +1 x140 +1 x141 +1 x142 +1 x143 +1 x144 +1 x145 +1 x146 +1 x147 +1 x148 +1 x149 >= +1
 c14: +1 x150 +1 x151 +1 x152 +1 x153 +1 x154 +1 x155 +1 x156 +1 x157 +1 x158 +1 x159 >= +1
 c15: +1 x160 +1 x161 +1 x162 +1 x163 +1 x164 +1 x165 +1 x166 +1 x167 +1 x168 +1 x169 >= +1
 c16: +1 x170 +1 x171 +1 x172 +1 x173 +1 x174 +1 x175 +1 x176 +1 x177 +1 x178 +1 x179 >= +1
 c17: +1 x180 +1 x181 +1 x182 +1 x183 +1 x184 +1 x185 +1 x186 +1 x187 +1 x188 +1 x189 >= +1
 c18: +1 x190 +1 x191 +1 x192 +1 x193 +1 x194 +1 x195 +1 x196 +1 x197 +1 x198 +1 x199 >= +1
 c19: +1 x200 +1 x201 +1 x202 +1 x203 +1 x204 +1 x205 +1 x206 +1 x207 +1 x208 +1 x209 >= +1
 c20: +10 x10 +35 x20 +9 x30 +34 x40 +6 x50 +5 x60 +32 x70 +25 x80 +12 x90 +7 x100 +19 x110 +9 x120 +25 x130
  +12 x140 +10 x150 +21 x160 +12 x170 +9 x180 +28 x190 +28 x200 -94 x0 <= +0
 c21: +10 x11 +35 x21 +9 x31 +34 x41 +6 x51 +5 x61 +32 x71 +25 x81 +12 x91 +7 x101 +19 x111 +9 x121 +25 x131
  +12 x141 +10 x151 +21 x161 +12 x171 +9 x181 +28 x191 +28 x201 -244 x1 <= +0
 c22: +10 x12 +35 x22 +9 x32 +34 x42 +6 x52 +5 x62 +32 x72 +25 x82 +12 x92 +7 x102 +19 x112 +9 x122 +25 x132
  +12 x142 +10 x152 +21 x162 +12 x172 +9 x182 +28 x192 +28 x202 -137 x2 <= +0
 c23: +10 x13 +35 x23 +9 x33 +34 x43 +6 x53 +5 x63 +32 x73 +25 x83 +12 x93 +7 x103 +19 x113 +9 x123 +25 x133
  +12 x143 +10 x153 +21 x163 +12 x173 +9 x183 +28 x193 +28 x203 -164 x3 <= +0
 c24: +10 x14 +35 x24 +9 x34 +34 x44 +6 x54 +5 x64 +32 x74 +25 x84 +12 x94 +7 x104 +19 x114 +9 x124 +25 x134
  +12 x144 +10 x154 +21 x164 +12 x174 +9 x184 +28 x194 +28 x204 -102 x4 <= +0
 c25: +10 x15 +35 x25 +9 x35 +34 x45 +6 x55 +5 x65 +32 x75 +25 x85 +12 x95 +7 x105 +19 x115 +9 x125 +25 x135
  +12 x145 +10 x155 +21 x165 +12 x175 +9 x185 +28 x195 +28 x205 -286 x5 <= +0
 c26: +10 x16 +35 x26 +9 x36 +34 x46 +6 x56 +5 x66 +32 x76 +25 x86 +12 x96 +7 x106 +19 x116 +9 x126 +25 x136
  +12 x146 +10 x156 +21 x166 +12 x176 +9 x186 +28 x196 +28 x206 -169 x6 <= +0
 c27: +10 x17 +35 x27 +9 x37 +34 x47 +6 x57 +5 x67 +32 x77 +25 x87 +12 x97 +7 x107 +19 x117 +9 x127 +25 x137
  +12 x147 +10 x157 +21 x167 +12 x177 +9 x187 +28 x197 +28 x207 -221 x7 <= +0
 c28: +10 x18 +35 x28 +9 x38 +34 x48 +6 x58 +5 x68 +32 x78 +25 x88 +12 x98 +7 x108 +19 x118 +9 x128 +25 x138
  +12 x148 +10 x158 +21 x168 +12 x178 +9 x188 +28 x198 +28 x208 -251 x8 <= +0
 c29: +10 x19 +35 x29 +9 x39 +34 x49 +6 x59 +5 x69 +32 x79 +25 x89 +12 x99 +7 x109 +19 x119 +9 x129 +25 x139
  +12 x149 +10 x159 +21 x169 +12 x179 +9 x189 +28 x199 +28 x209 -72 x9 <= +0
 c30: +94 x0 +244 x1 +137 x2 +164 x3 +102 x4 +286 x5 +169 x6 +221 x7 +251 x8 +72 x9 >= +348
 c31: +1 x10 -1 x0 <= +0
 c32: +1 x11 -1 x1 <= +0
 c33: +1 x12 -1 x2 <= +0
 c34: +1 x13 -1 x3 <= +0
 c35: +1 x14 -1 x4 <= +0
 c36: +1 x15 -1 x5 <= +0
 c37: +1 x16 -1 x6 <= +0
 c38: +1 x17 -1 x7 <= +0
 c39: +1 x18 -1 x8 <= +0
 c40: +1 x19 -1 x9 <= +0
 c41: +1 x20 -1 x0 <= +0
 c42: +1 x21 -1 x1 <= +0
 c43: +1 x22 -1 x2 <= +0
 c44: +1 x23 -1 x3 <= +0
 c45: +1 x24 -1 x4 <= +0
 c46: +1 x25 -1 x5 <= +0
 c47: +1 x26 -1 x6 <= +0
 c48: +1 x27 -1 x7 <= +0
 c49: +1 x28 -1 x8 <= +0
 c50: +1 x29 -1 x9 <= +0
 c51: +1 x30 -1 x0 <= +0
 c52: +1 x31 -1 x1 <= +0
 c53: +1 x32 -1 x2 <= +0
 c54: +1 x33 -1 x3 <= +0
 c55: +1 x34 -1 x4 <= +0
 c56: +1 x35 -1 x5 <= +0
 c57: +1 x36 -1 x6 <= +0
 c58: +1 x37 -1 x7 <= +0
 c59: +1 x38 -1 x8 <= +0
 c60: +1 x39 -1 x9 <= +0
 c61: +1 x40 -1 x0 <= +0
 c62: +1 x41 -1 x1 <= +0
 c63: +1 x42 -1 x2 <= +0
 c64: +1 x43 -1 x3 <= +0
 c65: +1 x44 -1 x4 <= +0
 c66: +1 x45 -1 x5 <= +0
 c67: +1 x46 -1 x6 <= +0
 c68: +1 x47 -1 x7 <= +0
 c69: +1 x48 -1 x8 <= +0
 c70: +1 x49 -1 x9 <= +0
 c71: +1 x50 -1 x0 <= +0
 c72: +1 x51 -1 x1 <= +0
 c73: +1 x52 -1 x2 <= +0
 c74: +1 x53 -1 x3 <= +0
 c75: +1 x54 -1 x4 <= +0
 c76: +1 x55 -1 x5 <= +0
 c77: +1 x56 -1 x6 <= +0
 c78: +1 x57 -1 x7 <= +0
 c79: +1 x58 -1 x8 <= +0
 c80: +1 x59 -1 x9 <= +0
 c81: +1 x60 -1 x0 <= +0
 c82: +1 x61 -1 x1 <= +0
 c83: +1 x62 -1 x2 <= +0
 c84: +1 x63 -1 x3 <= +0
 c85: +1 x64 -1 x4 <= +0
 c86: +1 x65 -1 x5 <= +0
 c87: +1 x66 -1 x6 <= +0
 c88: +1 x67 -1 x7 <= +0
 c89: +1 x68 -1 x8 <= +0
 c90: +1 x69 -1 x9 <= +0
 c91: +1 x70 -1 x0 <= +0
 c92: +1 x71 -1 x1 <= +0
 c93: +1 x72 -1 x2 <= +0
 c94: +1 x73 -1 x3 <= +0
 c95: +1 x74 -1 x4 <= +0
 c96: +1 x75 -1 x5 <= +0
 c97: +1 x76 -1 x6 <= +0
 c98: +1 x77 -1 x7 <= +0
 c99: +1 x78 -1 x8 <= +0
 c100: +1 x79 -1 x9 <= +0
 c101: +1 x80 -1 x0 <= +0
 c102: +1 x81 -1 x1 <= +0
 c103: +1 x82 -1 x2 <= +0
 c104: +1 x83 -1 x3 <= +0
 c105: +1 x84 -1 x4 <= +0
 c106: +1 x85 -1 x5 <= +0
 c107: +1 x86 -1 x6 <= +0
 c108: +1 x87 -1 x7 <= +0
 c109: +1 x88 -1 x8 <= +0
 c110: +1 x89 -1 x9 <= +0
 c111: +1 x90 -1 x0 <= +0
 c112: +1 x91 -1 x1 <= +0
 c113: +1 x92 -1 x2 <= +0
 c114: +1 x93 -1 x3 <= +0
 c115: +1 x94 -1 x4 <= +0
 c116: +1 x95 -1 x5 <= +0
 c117: +1 x96 -1 x6 <= +0
 c118: +1 x97 -1 x7 <= +0
 c119: +1 x98 -1 x8 <= +0
 c120: +1 x99 -1 x9 <= +0
 c121: +1 x100 -1 x0 <= +0
 c122: +1 x101 -1 x1 <= +0
 c123: +1 x102 -1 x2 <= +0
 c124: +1 x103 -1 x3 <= +0
 c125: +1 x104 -1 x4 <= +0
 c126: +1 x105 -1 x5 <= +0
 c127: +1 x106 -1 x6 <= +0
 c128: +1 x107 -1 x7 <= +0
 c129: +1 x108 -1 x8 <= +0
 c130: +1 x109 -1 x9 <= +0
 c131: +1 x110 -1 x0 <= +0
 c132: +1 x111 -1 x1 <= +0
 c133: +1 x112 -1 x2 <= +0
 c134: +1 x113 -1 x3 <= +0
 c135: +1 x114 -1 x4 <= +0
 c136: +1 x115 -1 x5 <= +0
 c137: +1 x116 -1 x6 <= +0
 c138: +1 x117 -1 x7 <= +0
 c139: +1 x118 -1 x8 <= +0
 c140: +1 x119 -1 x9 <= +0
 c141: +1 x120 -1 x0 <= +0
 c142: +1 x121 -1 x1 <= +0
 c143: +1 x122 -1 x2 <= +0
 c144: +1 x123 -1 x3 <= +0
 c145: +1 x124 -1 x4 <= +0
 c146: +1 x125 -1 x5 <= +0
 c147: +1 x126 -1 x6 <= +0
 c148: +1 x127 -1 x7 <= +0
 c149: +1 x128 -1 x8 <= +0
 c150: +1 x129 -1 x9 <= +0
 c151: +1 x130 -1 x0 <= +0
 c152: +1 x131 -1 x1 <= +0
 c153: +1 x132 -1 x2 <= +0
 c154: +1 x133 -1 x3 <= +0
 c155: +1 x134 -1 x4 <= +0
 c156: +1 x135 -1 x5 <= +0
 c157: +1 x136 -1 x6 <= +0
 c158: +1 x137 -1 x7 <= +0
 c159: +1 x138 -1 x8 <= +0
 c160: +1 x139 -1 x9 <= +0
 c161: +1 x140 -1 x0 <= +0
 c162: +1 x141 -1 x1 <= +0
 c163: +1 x142 -1 x2 <= +0
 c164: +1 x143 -1 x3 <= +0
 c165: +1 x144 -1 x4 <= +0
 c166: +1 x145 -1 x5 <= +0
 c167: +1 x146 -1 x6 <= +0
 c168: +1 x147 -1 x7 <= +0
 c169: +1 x148 -1 x8 <= +0
 c170: +1 x149 -1 x9 <= +0
 c171: +1 x150 -1 x0 <= +0
 c172: +1 x151 -1 x1 <= +0
 c173: +1 x152 -1 x2 <= +0
 c174: +1 x153 -1 x3 <= +0
 c175: +1 x154 -1 x4 <= +0
 c176: +1 x155 -1 x5 <= +0
 c177: +1 x156 -1 x6 <= +0
 c178: +1 x157 -1 x7 <= +0
 c179: +1 x158 -1 x8 <= +0
 c180: +1 x159 -1 x9 <= +0
 c181: +1 x160 -1 x0 <= +0
 c182: +1 x161 -1 x1 <= +0
 c183: +1 x162 -1 x2 <= +0
 c184: +1 x163 -1 x3 <= +0
 c185: +1 x164 -1 x4 <= +0
 c186: +1 x165 -1 x5 <= +0
 c187: +1 x166 -1 x6 <= +0
 c188: +1 x167 -1 x7 <= +0
 c189: +1 x168 -1 x8 <= +0
 c190: +1 x169 -1 x9 <= +0
 c191: +1 x170 -1 x0 <= +0
 c192: +1 x171 -1 x1 <= +0
 c193: +1 x172 -1 x2 <= +0
 c194: +1 x173 -1 x3 <= +0
 c195: +1 x174 -1 x4 <= +0
 c196: +1 x175 -1 x5 <= +0
 c197: +1 x176 -1 x6 <= +0
 c198: +1 x177 -1 x7 <= +0
 c199: +1 x178 -1 x8 <= +0
 c200: +1 x179 -1 x9 <= +0
 c201: +1 x180 -1 x0 <= +0
 c202: +1 x181 -1 x1 <= +0
 c203: +1 x182 -1 x2 <= +0
 c204: +1 x183 -1 x3 <= +0
 c205: +1 x184 -1 x4 <= +0
 c206: +1 x185 -1 x5 <= +0
 c207: +1 x186 -1 x6 <= +0
 c208: +1 x187 -1 x7 <= +0
 c209: +1 x188 -1 x8 <= +0
 c210: +1 x189 -1 x9 <= +0
 c211: +1 x190 -1 x0 <= +0
 c212: +1 x191 -1 x1 <= +0
 c213: +1 x192 -1 x2 <= +0
 c214: +1 x193 -1 x3 <= +0
 c215: +1 x194 -1 x4 <= +0
 c216: +1 x195 -1 x5 <= +0
 c217: +1 x196 -1 x6 <= +0
 c218: +1 x197 -1 x7 <= +0
 c219: +1 x198 -1 x8 <= +0
 c220: +1 x199 -1 x9 <= +0
 c221: +1 x200 -1 x0 <= +0
 c222: +1 x201 -1 x1 <= +0
 c223: +1 x202 -1 x2 <= +0
 c224: +1 x203 -1 x3 <= +0
 c225: +1 x204 -1 x4 <= +0
 c226: +1 x205 -1 x5 <= +0
 c227: +1 x206 -1 x6 <= +0
 c228: +1 x207 -1 x7 <= +0
 c229: +1 x208 -1 x8 <= +0
 c230: +1 x209 -1 x9 <= +0
Bounds
 0 <= x0 <= 1
 0 <= x1 <= 1
 0 <= x2 <= 1
 0 <= x3 <= 1
 0 <= x4 <= 1
 0 <= x5 <= 1
 0 <= x6 <= 1
 0 <= x7 <= 1
 0 <= x8 <= 1
 0 <= x9 <= 1
 0 <= x10 <= 1
 0 <= x11 <= 1
 0 <= x12 <= 1
 0 <= x13 <= 1
 0 <= x14 <= 1
 0 <= x15 <= 1
 0 <= x16 <= 1
 0 <= x17 <= 1
 0 <= x18 <= 1
 0 <= x19 <= 1
 0 <= x20 <= 1
 0 <= x21 <= 1
 0 <= x22 <= 1
 0 <= x23 <= 1
 0 <= x24 <= 1
 0 <= x25 <= 1
 0 <= x26 <= 1
 0 <= x27 <= 1
 0 <= x28 <= 1
 0 <= x29 <= 1
 0 <= x30 <= 1
 0 <= x31 <= 1
 0 <= x32 <= 1
 0 <= x33 <= 1
 0 <= x34 <= 1
 0 <= x35 <= 1
 0 <= x36 <= 1
 0 <= x37 <= 1
 0 <= x38 <= 1
 0 <= x39 <= 1
 0 <= x40 <= 1
 0 <= x41 <= 1
 0 <= x42 <= 1
 0 <= x43 <= 1
 0 <= x44 <= 1
 0 <= x45 <= 1
 0 <= x46 <= 1
 0 <= x47 <= 1
 0 <= x48 <= 1
 0 <= x49 <= 1
 0 <= x50 <= 1
 0 <= x51 <= 1
 0 <= x52 <= 1
 0 <= x53 <= 1
 0 <= x54 <= 1
 0 <= x55 <= 1
 0 <= x56 <= 1
 0 <= x57 <= 1
 0 <= x58 <= 1
 0 <= x59 <= 1
 0 <= x60 <= 1
 0 <= x61 <= 1
 0 <= x62 <= 1
 0 <= x63 <= 1
 0 <= x64 <= 1
 0 <= x65 <= 1
 0 <= x66 <= 1
 0 <= x67 <= 1
 0 <= x68 <= 1
 0 <= x69 <= 1
 0 <= x70 <= 1
 0 <= x71 <= 1
 0 <= x72 <= 1
 0 <= x73 <= 1
 0 <= x74 <= 1
 0 <= x75 <= 1
 0 <= x76 <= 1
 0 <= x77 <= 1
 0 <= x78 <= 1
 0 <= x79 <= 1
 0 <= x80 <= 1
 0 <= x81 <= 1
 0 <= x82 <= 1
 0 <= x83 <= 1
 0 <= x84 <= 1
 0 <= x85 <= 1
 0 <= x86 <= 1
 0 <= x87 <= 1
 0 <= x88 <= 1
 0 <= x89 <= 1
 0 <= x90 <= 1
 0 <= x91 <= 1
 0 <= x92 <= 1
 0 <= x93 <= 1
 0 <= x94 <= 1
 0 <= x95 <= 1
 0 <= x96 <= 1
 0 <= x97 <= 1
 0 <= x98 <= 1
 0 <= x99 <= 1
 0 <= x100 <= 1
 0 <= x101 <= 1
 0 <= x102 <= 1
 0 <= x103 <= 1
 0 <= x104 <= 1
 0 <= x105 <= 1
 0 <= x106 <= 1
 0 <= x107 <= 1
 0 <= x108 <= 1
 0 <= x109 <= 1
 0 <= x110 <= 1
 0 <= x111 <= 1
 0 <= x112 <= 1
 0 <= x113 <= 1
 0 <= x114 <= 1
 0 <= x115 <= 1
 0 <= x116 <= 1
 0 <= x117 <= 1
 0 <= x118 <= 1
 0 <= x119 <= 1
 0 <= x120 <= 1
 0 <= x121 <= 1
 0 <= x122 <= 1
 0 <= x123 <= 1
 0 <= x124 <= 1
 0 <= x125 <= 1
 0 <= x126 <= 1
 0 <= x127 <= 1
 0 <= x128 <= 1
 0 <= x129 <= 1
 0 <= x130 <= 1
 0 <= x131 <= 1
 0 <= x132 <= 1
 0 <= x133 <= 1
 0 <= x134 <= 1
 0 <= x135 <= 1
 0 <= x136 <= 1
 0 <= x137 <= 1
 0 <= x138 <= 1
 0 <= x139 <= 1
 0 <= x140 <= 1
 0 <= x141 <= 1
 0 <= x142 <= 1
 0 <= x143 <= 1
 0 <= x144 <= 1
 0 <= x145 <= 1
 0 <= x146 <= 1
 0 <= x147 <= 1
 0 <= x148 <= 1
 0 <= x149 <= 1
 0 <= x150 <= 1
 0 <= x151 <= 1
 0 <= x152 <= 1
 0 <= x153 <= 1
 0 <= x154 <= 1
 0 <= x155 <= 1
 0 <= x156 <= 1
 0 <= x157 <= 1
 0 <= x158 <= 1
 0 <= x159 <= 1
 0 <= x160 <= 1
 0 <= x161 <= 1
 0 <= x162 <= 1
 0 <= x163 <= 1
 0 <= x164 <= 1
 0 <= x165 <= 1
 0 <= x166 <= 1
 0 <= x167 <= 1
 0 <= x168 <= 1
 0 <= x169 <= 1
 0 <= x170 <= 1
 0 <= x171 <= 1
 0 <= x172 <= 1
 0 <= x173 <= 1
 0 <= x174 <= 1
 0 <= x175 <= 1
 0 <= x176 <= 1
 0 <= x177 <= 1
 0 <= x178 <= 1
 0 <= x179 <= 1
 0 <= x180 <= 1
 0 <= x181 <= 1
 0 <= x182 <= 1
 0 <= x183 <= 1
 0 <= x184 <= 1
 0 <= x185 <= 1
 0 <= x186 <= 1
 0 <= x187 <= 1
 0 <= x188 <= 1
 0 <= x189 <= 1
 0 <= x190 <= 1
 0 <= x191 <= 1
 0 <= x192 <= 1
 0 <= x193 <= 1
 0 <= x194 <= 1
 0 <= x195 <= 1
 0 <= x196 <= 1
 0 <= x197 <= 1
 0 <= x198 <= 1
 0 <= x199 <= 1
 0 <= x200 <= 1
 0 <= x201 <= 1
 0 <= x202 <= 1
 0 <= x203 <= 1
 0 <= x204 <= 1
 0 <= x205 <= 1
 0 <= x206 <= 1
 0 <= x207 <= 1
 0 <= x208 <= 1
 0 <= x209 <= 1
Binaries
 x0 x1 x2 x3 x4 x5 x6 x7 x8 x9 x10 x11 x12 x13 x14 x15 x16 x17 x18 x19 x20 x21 x22 x23 x24 x25 x26 x27
 x28 x29 x30 x31 x32 x33 x34 x35 x36 x37 x38 x39 x40 x41 x42 x43 x44 x45 x46 x47 x48 x49 x50 x51 x52 x53
 x54 x55 x56 x57 x58 x59 x60 x61 x62 x63 x64 x65 x66 x67 x68 x69 x70 x71 x72 x73 x74 x75 x76 x77 x78 x79
 x80 x81 x82 x83 x84 x85 x86 x87 x88 x89 x90 x91 x92 x93 x94 x95 x96 x97 x98 x99 x100 x101 x102 x103 x104
 x105 x106 x107 x108 x109 x110 x111 x112 x113 x114 x115 x116 x117 x118 x119 x120 x121 x122 x123 x124 x125
 x126 x127 x128 x129 x130 x131 x132 x133 x134 x135 x136 x137 x138 x139 x140 x141 x142 x143 x144 x145 x146
 x147 x148 x149 x150 x151 x152 x153 x154 x155 x156 x157 x158 x159 x160 x161 x162 x163 x164 x165 x166 x167
 x168 x169 x170 x171 x172 x173 x174 x175 x176 x177 x178 x179 x180 x181 x182 x183 x184 x185 x186 x187 x188
 x189 x190 x191 x192 x193 x194 x195 x196 x197 x198 x199 x200 x201 x202 x203 x204 x205 x206 x207 x208 x209
End
